
Gurobi 6.5.2 (linux64) logging started Mon Aug 29 10:57:52 2016

Optimize a model with 101 rows, 418 columns and 913 nonzeros
Coefficient statistics:
  Matrix range    [1e+00, 2e+00]
  Objective range [2e+00, 1e+02]
  Bounds range    [1e+00, 1e+00]
  RHS range       [1e+00, 1e+00]
Found heuristic solution: objective 2403
Presolve removed 35 rows and 14 columns
Presolve time: 0.00s
Presolved: 66 rows, 404 columns, 817 nonzeros
Variable types: 0 continuous, 404 integer (404 binary)

Root relaxation: objective 1.067500e+03, 77 iterations, 0.00 seconds

    Nodes    |    Current Node    |     Objective Bounds      |     Work
 Expl Unexpl |  Obj  Depth IntInf | Incumbent    BestBd   Gap | It/Node Time

     0     0 1067.50000    0    4 2403.00000 1067.50000  55.6%     -    0s
H    0     0                    1411.0000000 1067.50000  24.3%     -    0s
H    0     0                    1113.0000000 1067.50000  4.09%     -    0s
H    0     0                    1111.0000000 1067.50000  3.92%     -    0s
H    0     0                    1109.0000000 1067.50000  3.74%     -    0s
H    0     0                    1089.0000000 1067.50000  1.97%     -    0s
H    0     0                    1082.0000000 1067.50000  1.34%     -    0s
*    0     0               0    1078.0000000 1078.00000  0.00%     -    0s

Cutting planes:
  Gomory: 2
  Cover: 7

Explored 0 nodes (92 simplex iterations) in 0.01 seconds
Thread count was 8 (of 8 available processors)

Optimal solution found (tolerance 1.00e-04)
Best objective 1.078000000000e+03, best bound 1.078000000000e+03, gap 0.0%
